0000000000000000
0000000000000000
0000000000000000
0011111100000000
0000000000100000
0000000000001000
0000000000001000
0000000000000000
0000000000000100
0000000000000100
0000000000000100
0000000000001000
0000010000001000
0000010000001000
0000000000000000
0000000000000000
